
Gurobi 6.5.2 (win64) logging started 07/24/16 17:32:02


Gurobi 6.5.2 (win64) logging started 07/24/16 17:32:02

Optimize a model with 1796 rows, 310 columns and 4127 nonzeros
Coefficient statistics:
  Matrix range    [1e+00, 4e+02]
  Objective range [2e+00, 4e+02]
  Bounds range    [1e+00, 1e+00]
  RHS range       [1e+00, 3e+03]
Presolve removed 1678 rows and 78 columns
Presolve time: 0.02s
Presolved: 118 rows, 232 columns, 868 nonzeros
Variable types: 0 continuous, 232 integer (232 binary)

Root relaxation: objective 2.539000e+03, 104 iterations, 0.00 seconds

    Nodes    |    Current Node    |     Objective Bounds      |     Work
 Expl Unexpl |  Obj  Depth IntInf | Incumbent    BestBd   Gap | It/Node Time

*    0     0               0    2539.0000000 2539.00000  0.00%     -    0s

Explored 0 nodes (104 simplex iterations) in 0.02 seconds
Thread count was 8 (of 8 available processors)

Optimal solution found (tolerance 1.00e-04)
Best objective 2.539000000000e+03, best bound 2.539000000000e+03, gap 0.0%

Wrote requested result file 'H1\instance16\\Results16SG_Sol2.lp'

